p cnf 12 50 
-11 -7 8 0
9 11 -8 0
-8 -3 -2 0
-2 4 -6 0
6 8 7 0
12 8 -11 0
5 1 -6 0
12 9 5 0
8 5 7 0
-5 10 11 0
10 -11 -2 0
-7 9 -8 0
2 7 10 0
12 -4 8 0
4 -8 -5 0
4 -12 -11 0
-8 -5 -11 0
5 4 12 0
-11 6 12 0
-3 4 -9 0
11 -10 2 0
-11 3 10 0
10 -5 4 0
-4 -11 -7 0
-2 9 11 0
10 7 8 0
9 -8 10 0
-8 11 10 0
-4 -3 5 0
11 1 10 0
-11 8 3 0
5 -7 -11 0
1 -11 -6 0
-12 10 -9 0
11 5 1 0
-1 -12 -4 0
2 -9 8 0
2 6 -4 0
-7 -8 -10 0
-11 -3 -7 0
-8 3 7 0
-6 -10 -1 0
-1 3 7 0
7 -9 -12 0
-8 -5 10 0
-6 7 3 0
5 6 -7 0
6 -1 3 0
12 4 -5 0
-11 5 -7 0
